Maximize
 obj: 0 X1
Subject To
 c1:
  + 1 X113 + 1 X118 + 1 X147 + 1 X82 + 1 X122 + 1 X58 + 1 X87 + 1 X67
  + 1 X91 + 1 X8 + 1 X77
  <= 1
 c2:
  + 1 X127 + 1 X132 + 1 X107 + 1 X32 + 1 X50 + 1 X24 + 1 X130
  <= 1
 c3:
  + 1 X137 + 1 X48 + 1 X12 + 1 X59 + 1 X111 + 1 X53 + 1 X11 + 1 X92
  + 1 X126 + 1 X139 + 1 X147 + 1 X107 + 1 X8 + 1 X116 + 1 X65 + 1 X133
  + 1 X38
  <= 1
 c4:
  + 1 X90 + 1 X137 + 1 X97 + 1 X17 + 1 X71
  <= 1
 c5:
  + 1 X72 + 1 X37 + 1 X42 + 1 X117 + 1 X93 + 1 X73 + 1 X16 + 1 X92
  <= 1
 c6:
  + 1 X139 + 1 X118 + 1 X75 + 1 X137 + 1 X43
  <= 1
 c7:
  + 1 X115 + 1 X28 + 1 X56 + 1 X5 + 1 X132 + 1 X57 + 1 X63 + 1 X17
  + 1 X1 + 1 X87 + 1 X91 + 1 X136 + 1 X105 + 1 X45 + 1 X23 + 1 X29
  + 1 X142
  <= 1
 c8:
  + 1 X41 + 1 X20 + 1 X92 + 1 X100
  <= 1
 c9:
  + 1 X150 + 1 X65 + 1 X67 + 1 X121 + 1 X80 + 1 X23 + 1 X54 + 1 X91
  + 1 X109 + 1 X14 + 1 X114 + 1 X39 + 1 X38 + 1 X13 + 1 X149 + 1 X133
  + 1 X92 + 1 X1 + 1 X10 + 1 X68
  <= 1
 c10:
  + 1 X1 + 1 X44 + 1 X133 + 1 X28 + 1 X90 + 1 X138 + 1 X129 + 1 X76
  + 1 X135 + 1 X111 + 1 X68 + 1 X2 + 1 X25 + 1 X22 + 1 X74 + 1 X57
  + 1 X80
  <= 1
 c11:
  + 1 X148 + 1 X45
  <= 1
 c12:
  + 1 X56 + 1 X21 + 1 X124 + 1 X33 + 1 X73 + 1 X103 + 1 X137 + 1 X86
  + 1 X131 + 1 X26 + 1 X34
  <= 1
 c13:
  + 1 X66 + 1 X46 + 1 X26 + 1 X106 + 1 X62 + 1 X54 + 1 X81 + 1 X142
  + 1 X51 + 1 X27 + 1 X18 + 1 X84 + 1 X24 + 1 X40 + 1 X25 + 1 X20
  + 1 X137 + 1 X100 + 1 X15 + 1 X102
  <= 1
 c14:
  + 1 X53 + 1 X34 + 1 X27 + 1 X81
  <= 1
 c15:
  + 1 X113 + 1 X41 + 1 X127 + 1 X51 + 1 X42 + 1 X137
  <= 1
 c16:
  + 1 X82 + 1 X142 + 1 X38 + 1 X92 + 1 X42 + 1 X89 + 1 X144 + 1 X14
  <= 1
 c17:
  + 1 X33 + 1 X73 + 1 X52 + 1 X144 + 1 X113 + 1 X87 + 1 X127 + 1 X101
  + 1 X48 + 1 X130 + 1 X125 + 1 X58 + 1 X65 + 1 X12 + 1 X91 + 1 X70
  + 1 X30 + 1 X138 + 1 X129 + 1 X114
  <= 1
 c18:
  + 1 X2 + 1 X59 + 1 X42 + 1 X109 + 1 X67 + 1 X90 + 1 X46
  <= 1
 c19:
  + 1 X119 + 1 X65 + 1 X120 + 1 X43 + 1 X13 + 1 X63 + 1 X34 + 1 X68
  + 1 X98 + 1 X86 + 1 X53 + 1 X15 + 1 X73
  <= 1
 c20:
  + 1 X48 + 1 X29 + 1 X2 + 1 X90 + 1 X128 + 1 X119 + 1 X81 + 1 X127
  + 1 X143 + 1 X97 + 1 X8 + 1 X47
  <= 1
 c21:
  + 1 X94 + 1 X117 + 1 X51 + 1 X4
  <= 1
 c22:
  + 1 X38 + 1 X87 + 1 X120 + 1 X5 + 1 X105 + 1 X144 + 1 X132
  <= 1
 c23:
  + 1 X137 + 1 X105 + 1 X150 + 1 X76 + 1 X26 + 1 X58 + 1 X136 + 1 X12
  + 1 X131 + 1 X80 + 1 X1
  <= 1
 c24:
  + 1 X93 + 1 X88 + 1 X48
  <= 1
 c25:
  + 1 X21 + 1 X129 + 1 X77 + 1 X23 + 1 X121 + 1 X126 + 1 X137 + 1 X67
  + 1 X46 + 1 X6 + 1 X40
  <= 1
 c26:
  + 1 X52 + 1 X141 + 1 X119 + 1 X113 + 1 X60 + 1 X99 + 1 X86 + 1 X104
  + 1 X50 + 1 X149 + 1 X41
  <= 1
 c27:
  + 1 X19 + 1 X21 + 1 X48 + 1 X16 + 1 X3 + 1 X117 + 1 X20
  <= 1
 c28:
  + 1 X130 + 1 X53 + 1 X134 + 1 X113 + 1 X43 + 1 X8 + 1 X52 + 1 X100
  + 1 X120 + 1 X48 + 1 X86 + 1 X59 + 1 X87 + 1 X44 + 1 X122
  <= 1
 c29:
  + 1 X36 + 1 X51 + 1 X138 + 1 X107 + 1 X108 + 1 X49 + 1 X22 + 1 X146
  + 1 X84 + 1 X122 + 1 X85 + 1 X80 + 1 X78 + 1 X121 + 1 X75 + 1 X53
  + 1 X76 + 1 X52 + 1 X47 + 1 X6
  <= 1
 c30:
  + 1 X146 + 1 X46 + 1 X98 + 1 X44 + 1 X39 + 1 X75 + 1 X81 + 1 X63
  + 1 X26 + 1 X30 + 1 X14
  <= 1
 obj1:
  + 1 X1 + 79 X2 + 83 X3 + 32 X4 + 26 X5 + 39 X6 + 85 X7 + 85 X8
  + 37 X9 + 73 X10 + 77 X11 + 43 X12 + 76 X13 + 67 X14 + 65 X15 + 45 X16
  + 39 X17 + 70 X18 + 29 X19 + 38 X20 + 49 X21 + 60 X22 + 45 X23 + 73 X24
  + 90 X25 + 30 X26 + 61 X27 + 68 X28 + 51 X29 + 33 X30 + 17 X31 + 31 X32
  + 81 X33 + 51 X34 + 64 X35 + 47 X36 + 56 X37 + 74 X38 + 98 X39 + 78 X40
  + 30 X41 + 71 X42 + 73 X43 + 81 X44 + 6 X45 + 29 X46 + 64 X47 + 64 X48
  + 77 X49 + 2 X50 + 22 X51 + 16 X52 + 88 X53 + 46 X54 + 52 X55 + 26 X56
  + 48 X57 + 65 X58 + 23 X59 + 44 X60 + 71 X61 + 9 X62 + 29 X63 + 65 X64
  + 34 X65 + 66 X66 + 48 X67 + 37 X68 + 90 X69 + 94 X70 + 63 X71 + 59 X72
  + 98 X73 + 89 X74 + 69 X75 + 83 X76 + 54 X77 + 23 X78 + 64 X79 + 66 X80
  + 43 X81 + 54 X82 + 18 X83 + 40 X84 + 29 X85 + 78 X86 + 15 X87 + 30 X88
  + 61 X89 + 47 X90 + 69 X91 + 37 X92 + 20 X93 + 54 X94 + 73 X95 + 10 X96
  + 34 X97 + 49 X98 + 53 X99 + 10 X100 + 79 X101 + 44 X102 + 54 X103 + 88 X104
  + 20 X105 + 70 X106 + 65 X107 + 99 X108 + 42 X109 + 24 X110 + 9 X111 + 45 X112
  + 68 X113 + 33 X114 + 51 X115 + 62 X116 + 18 X117 + 83 X118 + 32 X119 + 15 X120
  + 95 X121 + 44 X122 + 2 X123 + 52 X124 + 42 X125 + 24 X126 + 78 X127 + 12 X128
  + 92 X129 + 25 X130 + 3 X131 + 4 X132 + 38 X133 + 17 X134 + 77 X135 + 79 X136
  + 2 X137 + 68 X138 + 12 X139 + 54 X140 + 54 X141 + 4 X142 + 77 X143 + 12 X144
  + 92 X145 + 47 X146 + 60 X147 + 20 X148 + 85 X149 + 56 X150
  >= 1
 obj2:
  + 95 X1 + 62 X2 + 4 X3 + 68 X4 + 95 X5 + 12 X6 + 19 X7 + 64 X8
  + 29 X9 + 70 X10 + 17 X11 + 53 X12 + 30 X13 + 4 X14 + 71 X15 + 92 X16
  + 17 X17 + 16 X18 + 19 X19 + 36 X20 + 18 X21 + 58 X22 + 69 X23 + 31 X24
  + 72 X25 + 73 X26 + 18 X27 + 62 X28 + 89 X29 + 41 X30 + 66 X31 + 66 X32
  + 57 X33 + 31 X34 + 67 X35 + 9 X36 + 67 X37 + 12 X38 + 25 X39 + 48 X40
  + 33 X41 + 38 X42 + 6 X43 + 28 X44 + 69 X45 + 90 X46 + 51 X47 + 93 X48
  + 91 X49 + 21 X50 + 11 X51 + 16 X52 + 12 X53 + 64 X54 + 75 X55 + 29 X56
  + 3 X57 + 54 X58 + 51 X59 + 46 X60 + 23 X61 + 81 X62 + 12 X63 + 49 X64
  + 43 X65 + 69 X66 + 77 X67 + 78 X68 + 65 X69 + 4 X70 + 11 X71 + 14 X72
  + 9 X73 + 33 X74 + 32 X75 + 39 X76 + 18 X77 + 9 X78 + 43 X79 + 8 X80
  + 6 X81 + 66 X82 + 62 X83 + 72 X84 + 29 X85 + 53 X86 + 82 X87 + 21 X88
  + 96 X89 + 97 X90 + 7 X91 + 56 X92 + 48 X93 + 20 X94 + 9 X95 + 52 X96
  + 77 X97 + 21 X98 + 90 X99 + 84 X100 + 46 X101 + 39 X102 + 3 X103 + 51 X104
  + 40 X105 + 34 X106 + 61 X107 + 20 X108 + 12 X109 + 76 X110 + 27 X111 + 37 X112
  + 100 X113 + 20 X114 + 57 X115 + 30 X116 + 51 X117 + 56 X118 + 68 X119 + 1 X120
  + 46 X121 + 6 X122 + 70 X123 + 7 X124 + 20 X125 + 4 X126 + 84 X127 + 78 X128
  + 27 X129 + 34 X130 + 75 X131 + 81 X132 + 69 X133 + 12 X134 + 78 X135 + 92 X136
  + 7 X137 + 13 X138 + 85 X139 + 67 X140 + 90 X141 + 26 X142 + 5 X143 + 84 X144
  + 23 X145 + 37 X146 + 16 X147 + 11 X148 + 69 X149 + 21 X150
  >= 2
 obj3:
  + 56 X1 + 40 X2 + 49 X3 + 91 X4 + 100 X5 + 9 X6 + 10 X7 + 83 X8
  + 22 X9 + 29 X10 + 31 X11 + 64 X12 + 49 X13 + 21 X14 + 50 X15 + 16 X16
  + 44 X17 + 31 X18 + 65 X19 + 96 X20 + 99 X21 + 98 X22 + 8 X23 + 17 X24
  + 60 X25 + 45 X26 + 2 X27 + 98 X28 + 21 X29 + 98 X30 + 71 X31 + 4 X32
  + 51 X33 + 99 X34 + 58 X35 + 10 X36 + 59 X37 + 28 X38 + 30 X39 + 26 X40
  + 75 X41 + 81 X42 + 19 X43 + 81 X44 + 72 X45 + 92 X46 + 6 X47 + 41 X48
  + 96 X49 + 42 X50 + 16 X51 + 31 X52 + 82 X53 + 35 X54 + 51 X55 + 97 X56
  + 43 X57 + 45 X58 + 53 X59 + 96 X60 + 54 X61 + 48 X62 + 9 X63 + 62 X64
  + 21 X65 + 64 X66 + 42 X67 + 27 X68 + 94 X69 + 53 X70 + 90 X71 + 80 X72
  + 91 X73 + 47 X74 + 18 X75 + 52 X76 + 32 X77 + 3 X78 + 83 X79 + 58 X80
  + 16 X81 + 83 X82 + 20 X83 + 87 X84 + 84 X85 + 55 X86 + 30 X87 + 51 X88
  + 85 X89 + 90 X90 + 51 X91 + 19 X92 + 1 X93 + 92 X94 + 9 X95 + 35 X96
  + 5 X97 + 44 X98 + 83 X99 + 78 X100 + 14 X101 + 1 X102 + 90 X103 + 71 X104
  + 5 X105 + 68 X106 + 75 X107 + 3 X108 + 93 X109 + 33 X110 + 76 X111 + 83 X112
  + 40 X113 + 55 X114 + 53 X115 + 31 X116 + 84 X117 + 70 X118 + 45 X119 + 81 X120
  + 55 X121 + 98 X122 + 48 X123 + 51 X124 + 42 X125 + 21 X126 + 15 X127 + 61 X128
  + 98 X129 + 37 X130 + 47 X131 + 12 X132 + 78 X133 + 11 X134 + 62 X135 + 30 X136
  + 39 X137 + 20 X138 + 97 X139 + 24 X140 + 6 X141 + 22 X142 + 28 X143 + 63 X144
  + 53 X145 + 3 X146 + 40 X147 + 73 X148 + 50 X149 + 12 X150
  >= 3
 obj4:
  + 64 X1 + 49 X2 + 56 X3 + 73 X4 + 98 X5 + 76 X6 + 57 X7 + 3 X8
  + 13 X9 + 59 X10 + 100 X11 + 18 X12 + 14 X13 + 15 X14 + 37 X15 + 70 X16
  + 19 X17 + 16 X18 + 8 X19 + 8 X20 + 88 X21 + 81 X22 + 61 X23 + 98 X24
  + 64 X25 + 95 X26 + 74 X27 + 46 X28 + 27 X29 + 84 X30 + 65 X31 + 77 X32
  + 7 X33 + 24 X34 + 28 X35 + 53 X36 + 88 X37 + 68 X38 + 39 X39 + 35 X40
  + 6 X41 + 47 X42 + 91 X43 + 9 X44 + 16 X45 + 32 X46 + 27 X47 + 96 X48
  + 30 X49 + 90 X50 + 99 X51 + 59 X52 + 47 X53 + 83 X54 + 59 X55 + 14 X56
  + 46 X57 + 14 X58 + 31 X59 + 14 X60 + 69 X61 + 37 X62 + 44 X63 + 91 X64
  + 62 X65 + 2 X66 + 82 X67 + 15 X68 + 12 X69 + 45 X70 + 81 X71 + 48 X72
  + 59 X73 + 58 X74 + 38 X75 + 41 X76 + 56 X77 + 100 X78 + 31 X79 + 7 X80
  + 21 X81 + 95 X82 + 72 X83 + 88 X84 + 94 X85 + 77 X86 + 91 X87 + 33 X88
  + 79 X89 + 47 X90 + 45 X91 + 54 X92 + 4 X93 + 79 X94 + 54 X95 + 88 X96
  + 86 X97 + 37 X98 + 21 X99 + 83 X100 + 21 X101 + 61 X102 + 17 X103 + 41 X104
  + 27 X105 + 34 X106 + 11 X107 + 63 X108 + 10 X109 + 15 X110 + 42 X111 + 33 X112
  + 75 X113 + 96 X114 + 1 X115 + 3 X116 + 71 X117 + 44 X118 + 64 X119 + 93 X120
  + 33 X121 + 28 X122 + 22 X123 + 4 X124 + 65 X125 + 15 X126 + 82 X127 + 44 X128
  + 70 X129 + 3 X130 + 30 X131 + 88 X132 + 57 X133 + 11 X134 + 36 X135 + 10 X136
  + 28 X137 + 25 X138 + 11 X139 + 31 X140 + 60 X141 + 93 X142 + 49 X143 + 94 X144
  + 42 X145 + 44 X146 + 81 X147 + 19 X148 + 64 X149 + 53 X150
  >= 4
Binary
 X1
 X2
 X3
 X4
 X5
 X6
 X7
 X8
 X9
 X10
 X11
 X12
 X13
 X14
 X15
 X16
 X17
 X18
 X19
 X20
 X21
 X22
 X23
 X24
 X25
 X26
 X27
 X28
 X29
 X30
 X31
 X32
 X33
 X34
 X35
 X36
 X37
 X38
 X39
 X40
 X41
 X42
 X43
 X44
 X45
 X46
 X47
 X48
 X49
 X50
 X51
 X52
 X53
 X54
 X55
 X56
 X57
 X58
 X59
 X60
 X61
 X62
 X63
 X64
 X65
 X66
 X67
 X68
 X69
 X70
 X71
 X72
 X73
 X74
 X75
 X76
 X77
 X78
 X79
 X80
 X81
 X82
 X83
 X84
 X85
 X86
 X87
 X88
 X89
 X90
 X91
 X92
 X93
 X94
 X95
 X96
 X97
 X98
 X99
 X100
 X101
 X102
 X103
 X104
 X105
 X106
 X107
 X108
 X109
 X110
 X111
 X112
 X113
 X114
 X115
 X116
 X117
 X118
 X119
 X120
 X121
 X122
 X123
 X124
 X125
 X126
 X127
 X128
 X129
 X130
 X131
 X132
 X133
 X134
 X135
 X136
 X137
 X138
 X139
 X140
 X141
 X142
 X143
 X144
 X145
 X146
 X147
 X148
 X149
 X150
End
